(set-logic ALL)
(declare-fun var0 () String)
(assert (str.in_re var0 (re.++ (re.* (re.union (str.to_re "00") (str.to_re "111"))) (re.union (re.union (str.to_re "22") (str.to_re "333")) (re.union (str.to_re "444") (str.to_re "555"))))))
(assert (<= 15 (str.len var0)))
(check-sat)